1345719948042497124 -1 0
4900322149280041788 -2 0
867696114605092750 -3 0
h 4 0
1481959936117241064 -5 0
519352435224340146 -6 0
1127996168999490921 -7 0
h 7 0
1209590911804791064 -8 0
541398719894296064 -9 0
h 6 0
6452707689741760694 -4 0
h 1 0
